
;this file is automatically generated: Tue Oct 27 10:34:59 CST 2020

;declarations generated

(declare-fun oclExcludes ( Int Int) Bool)
(declare-fun Cardinality ( Int) Int)
(declare-fun class19_Class19BoolAttr1 ( Int) Bool)
(declare-fun class19_Class19BoolAttr0 ( Int) Bool)
(declare-fun obj_a6ed6aac_75ea_4e94_8403_2ee2d9d2a835 ( Int) Int)
(declare-fun type_171a2895_e984_4d52_ab46_40f44a02802e_Class19 ( Int) Bool)
(declare-fun type_171a2895_e984_4d52_ab46_40f44a02802e_Class24 ( Int) Bool)
(declare-fun oclSelect ( Int Bool) Int)
(declare-fun Enum0 ( Int) Int)
(declare-fun Enum1 ( Int) Int)
(declare-fun Enum2 ( Int) Int)
(declare-fun container_ ( Int) Int)
(declare-fun type_171a2895_e984_4d52_ab46_40f44a02802e_Class8 ( Int) Bool)
(declare-fun oclIncludes ( Int Int) Bool)
(declare-fun ObjAt ( Int Int) Int)

;formula(s) generated
(assert (! (or (forall ((v Int)) (=> (and (and ( type_171a2895_e984_4d52_ab46_40f44a02802e_Class19 v )  ( type_171a2895_e984_4d52_ab46_40f44a02802e_Class24 v ) ) ( type_171a2895_e984_4d52_ab46_40f44a02802e_Class8 v ) ) ( class19_Class19BoolAttr1 ( obj_a6ed6aac_75ea_4e94_8403_2ee2d9d2a835 v )  ) )) (forall ((v Int)) (=> (and (and ( type_171a2895_e984_4d52_ab46_40f44a02802e_Class19 v )  ( type_171a2895_e984_4d52_ab46_40f44a02802e_Class24 v ) ) ( type_171a2895_e984_4d52_ab46_40f44a02802e_Class8 v ) ) ( class19_Class19BoolAttr0 ( obj_a6ed6aac_75ea_4e94_8403_2ee2d9d2a835 v )  ) ))):named l0))
(assert (exists ((o Int)) (and (and ( type_171a2895_e984_4d52_ab46_40f44a02802e_Class19 ( obj_a6ed6aac_75ea_4e94_8403_2ee2d9d2a835 o )  )  ( type_171a2895_e984_4d52_ab46_40f44a02802e_Class24 ( obj_a6ed6aac_75ea_4e94_8403_2ee2d9d2a835 o )  ) ) ( type_171a2895_e984_4d52_ab46_40f44a02802e_Class8 ( obj_a6ed6aac_75ea_4e94_8403_2ee2d9d2a835 o )  ) )))

 ;end of formula 